% File represents an instance of a Composite Structure problem to be solved by a CP framework
% Created on 2025-03-26 10:41:16.856
T = 50;
n = 9;
m = 12;
edges = [(2, 1),
(5, 4),
(8, 7),
(2, 3),
(5, 6),
(9, 8),
(1, 4),
(4, 7),
(2, 5),
(5, 8),
(3, 6),
(9, 6)];
counts = [|6, 16, 6, 16,
|8, 18, 8, 16,
|8, 16, 8, 14,
|6, 16, 6, 10,
|8, 18, 8, 10,
|8, 14, 8, 10,
|6, 16, 6, 8,
|6, 16, 6, 10,
|8, 16, 8, 10|];
